SDVRP instances/custom_instances/p10_10_split0.vrp
NAME:p10_10_split
BEST_KNOWN: 0
COMMENT: 0
DIMENSION: 932
CAPACITY: 200
EDGE_WEIGHT_FORMAT: FUNCTION
EDGE_WEIGHT_TYPE: EXACT_2D
NODE_COORD_SECTION
1 0.00000 0.00000
2 50 9
3 50 9
4 50 9
5 50 9
6 50 9
7 8 -24
8 8 -24
9 8 -24
10 8 -24
11 8 -24
12 8 -24
13 7 26
14 7 26
15 7 26
16 7 26
17 33 25
18 33 25
19 33 25
20 33 25
21 11 22
22 11 22
23 20 -19
24 20 -19
25 20 -19
26 20 -19
27 20 -19
28 20 -19
29 32 -30
30 32 -30
31 32 -30
32 32 -30
33 -41 -11
34 -41 -11
35 -41 -11
36 -41 -11
37 -41 -11
38 -41 -11
39 -41 -11
40 -30 -27
41 -30 -27
42 -30 -27
43 -30 -27
44 -30 -27
45 -30 -27
46 22 38
47 22 38
48 22 38
49 22 38
50 42 30
51 42 30
52 42 30
53 42 30
54 42 30
55 42 30
56 39 -27
57 39 -27
58 39 -27
59 39 -27
60 39 -27
61 39 -27
62 39 -27
63 28 40
64 28 40
65 28 40
66 28 40
67 28 40
68 -49 -37
69 -49 -37
70 -30 30
71 -30 30
72 9 26
73 9 26
74 9 26
75 36 -34
76 36 -34
77 36 -34
78 36 -34
79 36 -34
80 36 -34
81 27 -8
82 27 -8
83 27 -8
84 27 -8
85 27 -8
86 27 -8
87 8 -23
88 8 -23
89 8 -23
90 8 -23
91 8 -23
92 8 -23
93 35 -24
94 35 -24
95 35 -24
96 35 -24
97 30 -6
98 30 -6
99 30 -6
100 30 -6
101 30 -6
102 -26 30
103 -26 30
104 -26 30
105 -26 30
106 -26 30
107 16 9
108 16 9
109 16 9
110 16 9
111 16 9
112 30 -32
113 30 -32
114 30 -32
115 30 -32
116 -15 47
117 -15 47
118 -15 47
119 -15 47
120 -15 47
121 16 -20
122 16 -20
123 16 -20
124 16 -20
125 16 -20
126 22 -22
127 22 -22
128 22 -22
129 22 -22
130 22 -22
131 8 -28
132 8 -28
133 8 -28
134 8 -28
135 8 -28
136 8 -28
137 8 -28
138 8 -2
139 8 -2
140 8 -2
141 8 -2
142 8 -2
143 26 43
144 26 43
145 26 43
146 26 43
147 26 43
148 26 43
149 -43 -48
150 -43 -48
151 -43 -48
152 -43 -48
153 -43 -48
154 -43 -48
155 -43 -48
156 -22 32
157 -22 32
158 16 -36
159 16 -36
160 16 -36
161 16 -36
162 32 -9
163 32 -9
164 32 -9
165 32 -9
166 32 -9
167 32 -9
168 -38 -35
169 -38 -35
170 -38 -35
171 -38 -35
172 -38 -35
173 20 21
174 20 21
175 20 21
176 -24 10
177 -24 10
178 -24 10
179 21 -22
180 21 -22
181 -18 -30
182 -18 -30
183 -18 -30
184 -18 -30
185 -16 -9
186 -16 -9
187 -16 -9
188 16 3
189 16 3
190 16 3
191 16 3
192 -47 2
193 -47 2
194 -47 2
195 -47 2
196 -47 2
197 -47 2
198 -33 31
199 -33 31
200 -16 31
201 -16 31
202 -16 31
203 -16 31
204 -16 31
205 -16 31
206 -16 31
207 -16 31
208 14 -36
209 14 -36
210 14 -36
211 14 -36
212 14 -36
213 11 21
214 11 21
215 11 21
216 11 21
217 11 21
218 11 21
219 11 21
220 -22 -1
221 -22 -1
222 -22 -1
223 -10 -50
224 -10 -50
225 -10 -50
226 -10 -50
227 20 -43
228 20 -43
229 20 -43
230 -35 23
231 -35 23
232 -35 23
233 -35 23
234 -26 -8
235 -26 -8
236 -26 -8
237 -26 -8
238 -26 -8
239 22 46
240 22 46
241 22 46
242 22 46
243 22 46
244 22 46
245 -34 8
246 -34 8
247 -34 8
248 -34 8
249 -34 8
250 33 -5
251 33 -5
252 33 -5
253 33 -5
254 33 -5
255 33 -5
256 -44 -46
257 -44 -46
258 -44 -46
259 -44 -46
260 -44 -46
261 -44 -46
262 -44 -46
263 -44 -46
264 -49 -6
265 -49 -6
266 -49 -6
267 -49 -6
268 15 -11
269 15 -11
270 15 -11
271 15 -11
272 26 14
273 26 14
274 26 14
275 26 14
276 26 14
277 26 14
278 26 14
279 -33 -43
280 -33 -43
281 -33 -43
282 -33 -43
283 -33 -43
284 -33 -43
285 17 -4
286 17 -4
287 10 -47
288 10 -47
289 10 -47
290 10 -47
291 10 -47
292 10 -47
293 10 -47
294 23 31
295 23 31
296 23 31
297 9 -33
298 9 -33
299 9 -33
300 9 -33
301 9 -33
302 -8 -38
303 -8 -38
304 -8 -38
305 -8 -38
306 -8 -38
307 14 33
308 14 33
309 14 33
310 14 33
311 14 33
312 14 33
313 -39 28
314 -39 28
315 -39 28
316 -39 28
317 -13 43
318 -13 43
319 -13 43
320 -13 43
321 -26 -27
322 -26 -27
323 -26 -27
324 -26 -27
325 7 7
326 7 7
327 7 7
328 7 7
329 34 -4
330 34 -4
331 34 -4
332 34 -4
333 34 -4
334 20 47
335 20 47
336 20 47
337 20 47
338 20 47
339 -1 4
340 -1 4
341 -1 4
342 -1 4
343 -1 4
344 -1 4
345 -42 -28
346 -42 -28
347 -42 -28
348 -42 -28
349 -42 -28
350 26 -40
351 26 -40
352 26 -40
353 26 -40
354 26 -40
355 6 26
356 6 26
357 6 26
358 6 26
359 6 26
360 26 33
361 26 33
362 26 33
363 33 -32
364 33 -32
365 33 -32
366 33 -32
367 33 -32
368 33 -32
369 33 -32
370 38 -3
371 38 -3
372 -42 -37
373 -42 -37
374 -42 -37
375 -42 -37
376 -42 -37
377 -26 26
378 -26 26
379 -26 26
380 -26 26
381 -10 -22
382 -10 -22
383 -10 -22
384 -10 -22
385 -6 43
386 -6 43
387 -6 43
388 21 40
389 21 40
390 21 40
391 21 40
392 33 -21
393 33 -21
394 33 -21
395 -15 3
396 -15 3
397 -15 3
398 -15 3
399 -15 3
400 -15 3
401 45 -14
402 45 -14
403 45 -14
404 45 -14
405 45 -14
406 -22 49
407 -22 49
408 -22 49
409 -22 49
410 -22 49
411 -28 31
412 -28 31
413 -50 40
414 -50 40
415 -50 40
416 -50 40
417 -50 40
418 47 -29
419 47 -29
420 47 -29
421 47 -29
422 42 -27
423 42 -27
424 42 -27
425 14 48
426 14 48
427 14 48
428 14 48
429 14 48
430 6 -24
431 6 -24
432 6 -24
433 6 -24
434 6 -24
435 6 -24
436 -19 6
437 -19 6
438 -19 6
439 -19 6
440 33 43
441 33 43
442 33 43
443 33 43
444 33 43
445 -22 23
446 -22 23
447 -22 23
448 -22 23
449 -35 -45
450 -35 -45
451 -35 -45
452 -1 29
453 -1 29
454 -3 13
455 -3 13
456 -3 13
457 -3 13
458 -3 13
459 -3 13
460 -3 13
461 -50 40
462 -50 40
463 -50 40
464 -45 34
465 -45 34
466 -45 34
467 -45 34
468 -45 34
469 -45 34
470 -45 34
471 -45 34
472 17 32
473 17 32
474 17 32
475 17 32
476 24 1
477 24 1
478 24 1
479 24 1
480 24 1
481 -21 30
482 -21 30
483 -21 30
484 -21 30
485 -21 30
486 -21 30
487 14 -10
488 14 -10
489 -41 37
490 -41 37
491 -41 37
492 -41 37
493 -41 37
494 -39 -23
495 -39 -23
496 -39 -23
497 -39 -23
498 26 30
499 26 30
500 26 30
501 26 30
502 26 30
503 26 30
504 26 30
505 -39 -31
506 -39 -31
507 -39 -31
508 38 -1
509 38 -1
510 38 -1
511 38 -1
512 38 -1
513 41 -47
514 41 -47
515 41 -47
516 41 -47
517 -13 36
518 -13 36
519 -13 36
520 33 8
521 33 8
522 33 8
523 -10 -42
524 -10 -42
525 -12 -26
526 -12 -26
527 -12 -26
528 7 11
529 7 11
530 -25 -1
531 -25 -1
532 -25 -1
533 -25 -1
534 -25 -1
535 32 -27
536 32 -27
537 32 -27
538 32 -27
539 32 -27
540 -9 -1
541 -9 -1
542 -9 -1
543 -9 -1
544 -9 -1
545 -9 -1
546 -25 16
547 -25 16
548 -25 16
549 6 48
550 6 48
551 6 48
552 42 -29
553 42 -29
554 42 -29
555 42 -29
556 42 -29
557 7 -46
558 7 -46
559 7 -46
560 7 -46
561 7 -46
562 -32 -9
563 -32 -9
564 -32 -9
565 27 -42
566 27 -42
567 27 -42
568 27 -42
569 10 37
570 10 37
571 10 37
572 -42 0
573 -42 0
574 -42 0
575 -42 0
576 -50 -28
577 -50 -28
578 -50 -28
579 -50 -28
580 -50 -28
581 13 -49
582 13 -49
583 13 -49
584 13 -49
585 13 -49
586 13 -49
587 13 -49
588 -32 14
589 -32 14
590 -32 14
591 44 -21
592 44 -21
593 44 -21
594 44 -21
595 44 -21
596 44 -21
597 -35 -17
598 -35 -17
599 -35 -17
600 -35 -17
601 -35 -17
602 -35 -17
603 -35 -17
604 17 -8
605 17 -8
606 17 -8
607 -31 -30
608 -31 -30
609 -31 -30
610 -31 -30
611 -31 -30
612 -31 -30
613 -31 -30
614 -31 -30
615 17 -26
616 17 -26
617 -28 -45
618 -28 -45
619 -28 -45
620 -28 -45
621 -28 -45
622 19 -50
623 19 -50
624 19 -50
625 19 -50
626 19 -50
627 19 -50
628 19 -50
629 -40 -31
630 -40 -31
631 -40 -31
632 -40 -31
633 -40 -31
634 -40 -31
635 5 -43
636 5 -43
637 5 -43
638 5 -43
639 5 -43
640 5 -43
641 -2 -32
642 -2 -32
643 -2 -32
644 -2 -32
645 -2 -32
646 -2 -32
647 -2 -32
648 2 -38
649 2 -38
650 2 -38
651 2 -38
652 -1 -43
653 -1 -43
654 -1 -43
655 -1 -43
656 -1 -43
657 -1 -43
658 -1 -43
659 16 12
660 16 12
661 16 12
662 16 12
663 16 12
664 -26 -21
665 -26 -21
666 -26 -21
667 -26 -21
668 -26 -21
669 -26 -21
670 21 50
671 21 50
672 21 50
673 21 50
674 21 50
675 -23 16
676 -23 16
677 -23 16
678 -23 16
679 -23 16
680 -26 26
681 -26 26
682 -26 26
683 -33 7
684 -33 7
685 -33 7
686 -33 7
687 -33 7
688 13 8
689 13 8
690 13 8
691 13 8
692 13 8
693 34 -42
694 34 -42
695 34 -42
696 34 -42
697 34 -42
698 34 -42
699 -28 -49
700 -28 -49
701 -28 -49
702 50 34
703 50 34
704 50 34
705 42 25
706 42 25
707 42 25
708 42 25
709 -7 10
710 -7 10
711 -7 10
712 -7 10
713 -7 10
714 -7 10
715 -15 23
716 -15 23
717 -15 23
718 -15 23
719 -15 23
720 -15 23
721 46 -45
722 46 -45
723 46 -45
724 46 -45
725 46 -45
726 46 -45
727 46 -45
728 46 -45
729 -14 -39
730 -14 -39
731 -14 -39
732 -14 -39
733 23 26
734 23 26
735 23 26
736 23 26
737 23 26
738 -32 -48
739 -32 -48
740 -32 -48
741 -32 -48
742 33 -21
743 33 -21
744 -11 -46
745 -11 -46
746 -11 -46
747 -11 -46
748 -11 -46
749 -11 -46
750 -11 -46
751 34 -47
752 34 -47
753 34 -47
754 34 -47
755 34 -47
756 34 -47
757 34 -47
758 39 -33
759 39 -33
760 39 -33
761 39 -33
762 39 -33
763 -12 30
764 -12 30
765 -12 30
766 -12 30
767 -12 30
768 -12 30
769 -48 -2
770 -48 -2
771 -28 -40
772 -28 -40
773 -28 -40
774 -28 -40
775 -28 -40
776 -28 -40
777 -39 47
778 -39 47
779 -39 47
780 -39 47
781 -39 47
782 -8 6
783 -8 6
784 -8 6
785 -8 6
786 -8 6
787 -25 -39
788 -25 -39
789 -25 -39
790 0 29
791 0 29
792 0 29
793 0 29
794 0 29
795 48 -40
796 48 -40
797 48 -40
798 48 -40
799 48 -40
800 48 -40
801 -6 2
802 -6 2
803 -6 2
804 -6 2
805 -6 2
806 32 28
807 32 28
808 32 28
809 32 28
810 32 28
811 32 28
812 32 28
813 -26 -15
814 -26 -15
815 -26 -15
816 -26 -15
817 -26 -15
818 -26 -15
819 -22 -18
820 -22 -18
821 -22 -18
822 22 48
823 22 48
824 22 48
825 50 -5
826 50 -5
827 50 -5
828 42 -26
829 42 -26
830 42 -26
831 42 -26
832 8 38
833 8 38
834 8 38
835 8 38
836 8 38
837 8 38
838 49 -23
839 49 -23
840 49 -23
841 49 -23
842 44 17
843 44 17
844 44 17
845 4 36
846 4 36
847 4 36
848 4 36
849 4 36
850 30 48
851 30 48
852 30 48
853 30 48
854 30 48
855 -15 22
856 -15 22
857 -15 22
858 -15 22
859 -15 22
860 -15 22
861 -18 -24
862 -18 -24
863 -18 -24
864 -18 -24
865 -18 -24
866 -18 -24
867 19 28
868 19 28
869 19 28
870 19 28
871 -38 -45
872 -38 -45
873 32 -14
874 32 -14
875 32 -14
876 32 -14
877 32 -14
878 -48 30
879 -48 30
880 -48 30
881 -48 30
882 -48 30
883 -48 30
884 -48 30
885 -20 -20
886 -20 -20
887 -20 -20
888 -20 -20
889 -20 -20
890 23 -4
891 23 -4
892 23 -4
893 23 -4
894 23 -4
895 -20 45
896 -20 45
897 -20 45
898 -20 45
899 -20 45
900 -20 45
901 -20 45
902 41 49
903 41 49
904 41 49
905 41 49
906 -31 11
907 -31 11
908 -31 11
909 -31 11
910 -31 11
911 -31 11
912 43 -9
913 43 -9
914 43 -9
915 43 -9
916 43 -9
917 -32 15
918 -32 15
919 -18 38
920 -18 38
921 9 -20
922 9 -20
923 9 -20
924 9 -20
925 9 -20
926 9 -20
927 -22 -11
928 -22 -11
929 -22 -11
930 -22 -11
931 -22 -11
932 -22 -11
DEMAND_SECTION
1 0
2 20
3 2
4 2
5 2
6 1
7 40
8 10
9 2
10 2
11 2
12 1
13 40
14 20
15 2
16 2
17 20
18 10
19 2
20 1
21 20
22 10
23 40
24 20
25 10
26 2
27 2
28 2
29 40
30 20
31 10
32 1
33 40
34 10
35 2
36 2
37 2
38 2
39 1
40 40
41 20
42 2
43 2
44 2
45 1
46 20
47 2
48 2
49 2
50 40
51 10
52 2
53 2
54 2
55 2
56 40
57 10
58 2
59 2
60 2
61 2
62 1
63 40
64 40
65 2
66 2
67 1
68 40
69 10
70 40
71 2
72 40
73 20
74 1
75 40
76 10
77 2
78 2
79 2
80 2
81 40
82 40
83 2
84 2
85 2
86 2
87 20
88 10
89 2
90 2
91 2
92 2
93 40
94 20
95 2
96 2
97 20
98 2
99 2
100 2
101 1
102 40
103 2
104 2
105 2
106 2
107 20
108 10
109 2
110 2
111 2
112 40
113 2
114 2
115 2
116 40
117 20
118 10
119 2
120 2
121 40
122 20
123 2
124 2
125 2
126 40
127 20
128 10
129 2
130 2
131 40
132 40
133 10
134 2
135 2
136 2
137 2
138 20
139 2
140 2
141 2
142 1
143 40
144 40
145 2
146 2
147 2
148 1
149 40
150 20
151 2
152 2
153 2
154 2
155 1
156 40
157 20
158 40
159 40
160 2
161 1
162 40
163 10
164 2
165 2
166 2
167 1
168 20
169 2
170 2
171 2
172 2
173 40
174 40
175 20
176 40
177 2
178 1
179 40
180 10
181 20
182 10
183 2
184 2
185 40
186 40
187 1
188 40
189 2
190 2
191 2
192 40
193 20
194 2
195 2
196 2
197 2
198 20
199 10
200 40
201 40
202 10
203 2
204 2
205 2
206 2
207 1
208 40
209 40
210 10
211 2
212 2
213 20
214 10
215 2
216 2
217 2
218 2
219 1
220 40
221 2
222 1
223 40
224 20
225 2
226 1
227 40
228 20
229 1
230 40
231 2
232 2
233 2
234 20
235 2
236 2
237 2
238 1
239 40
240 2
241 2
242 2
243 2
244 1
245 40
246 10
247 2
248 2
249 1
250 40
251 40
252 2
253 2
254 2
255 1
256 40
257 20
258 10
259 2
260 2
261 2
262 2
263 1
264 40
265 20
266 2
267 2
268 40
269 20
270 2
271 1
272 40
273 20
274 10
275 2
276 2
277 2
278 1
279 40
280 20
281 2
282 2
283 2
284 2
285 40
286 40
287 40
288 10
289 2
290 2
291 2
292 2
293 1
294 40
295 20
296 10
297 40
298 20
299 2
300 2
301 1
302 40
303 20
304 2
305 2
306 2
307 40
308 20
309 10
310 2
311 2
312 1
313 40
314 40
315 10
316 1
317 40
318 2
319 2
320 1
321 40
322 40
323 2
324 1
325 40
326 40
327 2
328 1
329 20
330 10
331 2
332 2
333 1
334 40
335 40
336 2
337 2
338 1
339 40
340 10
341 2
342 2
343 2
344 2
345 40
346 20
347 10
348 2
349 1
350 20
351 2
352 2
353 2
354 1
355 20
356 10
357 2
358 2
359 1
360 40
361 2
362 1
363 40
364 40
365 10
366 2
367 2
368 2
369 1
370 40
371 1
372 40
373 10
374 2
375 2
376 2
377 40
378 2
379 2
380 2
381 20
382 2
383 2
384 2
385 20
386 10
387 2
388 20
389 10
390 2
391 1
392 40
393 40
394 10
395 40
396 40
397 2
398 2
399 2
400 1
401 40
402 20
403 2
404 2
405 2
406 20
407 10
408 2
409 2
410 2
411 40
412 20
413 40
414 10
415 2
416 2
417 2
418 40
419 10
420 2
421 2
422 20
423 10
424 2
425 40
426 20
427 2
428 2
429 2
430 20
431 2
432 2
433 2
434 2
435 1
436 40
437 20
438 10
439 2
440 20
441 10
442 2
443 2
444 2
445 20
446 2
447 2
448 1
449 40
450 10
451 2
452 40
453 40
454 40
455 20
456 10
457 2
458 2
459 2
460 2
461 40
462 40
463 10
464 40
465 40
466 10
467 2
468 2
469 2
470 2
471 1
472 40
473 20
474 10
475 2
476 40
477 40
478 10
479 2
480 1
481 40
482 10
483 2
484 2
485 2
486 1
487 20
488 10
489 40
490 40
491 2
492 2
493 1
494 40
495 2
496 2
497 1
498 20
499 10
500 2
501 2
502 2
503 2
504 1
505 40
506 10
507 1
508 20
509 2
510 2
511 2
512 2
513 40
514 40
515 10
516 1
517 40
518 40
519 20
520 40
521 10
522 2
523 40
524 1
525 40
526 2
527 1
528 40
529 10
530 40
531 2
532 2
533 2
534 2
535 40
536 20
537 2
538 2
539 1
540 20
541 10
542 2
543 2
544 2
545 1
546 20
547 10
548 1
549 40
550 20
551 1
552 40
553 2
554 2
555 2
556 1
557 40
558 40
559 10
560 2
561 1
562 40
563 20
564 10
565 40
566 10
567 2
568 1
569 40
570 10
571 2
572 40
573 10
574 2
575 1
576 40
577 2
578 2
579 2
580 1
581 40
582 40
583 10
584 2
585 2
586 2
587 2
588 20
589 10
590 2
591 40
592 2
593 2
594 2
595 2
596 1
597 20
598 10
599 2
600 2
601 2
602 2
603 1
604 40
605 10
606 2
607 40
608 40
609 10
610 2
611 2
612 2
613 2
614 1
615 20
616 10
617 40
618 20
619 2
620 2
621 1
622 40
623 20
624 10
625 2
626 2
627 2
628 1
629 40
630 10
631 2
632 2
633 2
634 1
635 20
636 10
637 2
638 2
639 2
640 2
641 40
642 10
643 2
644 2
645 2
646 2
647 1
648 40
649 40
650 10
651 2
652 40
653 40
654 10
655 2
656 2
657 2
658 2
659 40
660 20
661 2
662 2
663 2
664 40
665 20
666 10
667 2
668 2
669 1
670 40
671 10
672 2
673 2
674 2
675 40
676 40
677 2
678 2
679 1
680 40
681 40
682 2
683 40
684 40
685 2
686 2
687 2
688 20
689 10
690 2
691 2
692 1
693 40
694 10
695 2
696 2
697 2
698 2
699 40
700 20
701 1
702 40
703 20
704 2
705 20
706 10
707 2
708 2
709 40
710 20
711 2
712 2
713 2
714 1
715 40
716 40
717 2
718 2
719 2
720 2
721 40
722 40
723 10
724 2
725 2
726 2
727 2
728 1
729 40
730 20
731 2
732 1
733 40
734 40
735 10
736 2
737 1
738 40
739 2
740 2
741 1
742 20
743 10
744 40
745 40
746 10
747 2
748 2
749 2
750 2
751 40
752 40
753 10
754 2
755 2
756 2
757 1
758 40
759 20
760 2
761 2
762 1
763 40
764 40
765 2
766 2
767 2
768 1
769 40
770 1
771 40
772 20
773 10
774 2
775 2
776 1
777 40
778 2
779 2
780 2
781 1
782 40
783 20
784 10
785 2
786 1
787 40
788 40
789 20
790 40
791 40
792 10
793 2
794 1
795 40
796 20
797 10
798 2
799 2
800 2
801 20
802 2
803 2
804 2
805 1
806 40
807 20
808 2
809 2
810 2
811 2
812 1
813 20
814 10
815 2
816 2
817 2
818 2
819 40
820 20
821 10
822 40
823 40
824 20
825 40
826 40
827 1
828 40
829 40
830 2
831 2
832 20
833 2
834 2
835 2
836 2
837 1
838 20
839 2
840 2
841 2
842 40
843 10
844 1
845 40
846 10
847 2
848 2
849 1
850 20
851 2
852 2
853 2
854 2
855 40
856 40
857 2
858 2
859 2
860 2
861 40
862 40
863 2
864 2
865 2
866 1
867 40
868 20
869 2
870 2
871 40
872 10
873 40
874 20
875 2
876 2
877 1
878 40
879 20
880 10
881 2
882 2
883 2
884 2
885 20
886 10
887 2
888 2
889 2
890 40
891 40
892 10
893 2
894 1
895 40
896 40
897 10
898 2
899 2
900 2
901 1
902 20
903 10
904 2
905 1
906 40
907 10
908 2
909 2
910 2
911 1
912 20
913 10
914 2
915 2
916 2
917 40
918 40
919 40
920 1
921 40
922 40
923 2
924 2
925 2
926 2
927 40
928 40
929 10
930 2
931 2
932 2
DEPOT_SECTION
1
-1
EOF