SDVRP instances/custom_instances/p10_10_split0.sol
931 -11 9 10 7 6 8 89 88 87 90 86 91 924 923 921 925 920 922 -21 310 309 307 311 306 308 472 471 474 473 868 866 -22 27 25 23 26 24 128 125 126 129 127 178 179 -30 28 31 29 534 537 538 536 535 93 94 95 92 -42 40 610 611 609 279 280 282 281 283 278 449 450 448 737 738 739 740 773 865 863 -47 46 48 45 62 65 63 66 64 359 360 498 503 497 502 501 500 734 -60 61 59 58 55 57 56 551 553 555 554 552 419 418 420 417 422 423 421 829 830 -82 80 85 83 84 81 98 100 96 97 99 254 249 251 253 250 -103 105 411 410 198 197 70 69 679 377 444 446 -111 114 112 692 693 694 697 696 695 567 566 564 352 350 349 353 614 615 -113 78 76 79 75 77 722 725 726 727 724 723 721 720 799 796 797 794 795 798 761 760 -120 124 122 121 123 270 268 267 269 486 487 -136 133 132 134 130 131 135 648 647 649 650 -137 141 138 140 139 284 285 889 892 890 893 891 -143 147 145 146 144 142 851 850 852 853 849 904 903 902 901 442 439 441 440 443 361 295 -157 159 160 158 207 209 208 210 211 429 430 -164 166 163 162 161 165 403 401 911 914 915 913 912 369 370 330 332 328 331 329 252 -175 177 176 917 916 587 589 588 905 -184 186 185 930 931 929 926 927 928 539 543 -188 190 187 189 477 476 479 478 475 603 605 604 -202 204 201 199 206 205 200 203 518 516 517 -212 20 71 73 72 12 13 14 15 354 356 358 357 355 -215 218 213 736 733 735 732 174 173 172 660 662 -216 214 217 390 388 387 389 241 243 821 823 822 670 673 671 672 669 -219 438 436 437 435 397 395 398 399 394 396 -220 221 532 533 530 531 196 195 193 194 192 191 769 768 266 263 265 264 542 544 540 541 -227 226 228 624 623 622 625 627 626 621 585 584 583 581 582 586 289 -229 232 879 877 882 881 883 880 878 313 312 -231 230 315 314 463 465 469 468 470 464 488 491 492 490 489 -237 233 234 236 235 561 562 563 812 813 819 820 818 -239 238 242 240 333 337 336 335 334 426 427 424 425 428 -255 261 260 258 262 257 256 259 154 152 151 153 148 149 150 871 870 -304 302 303 744 747 743 745 746 748 749 223 222 225 224 646 641 643 642 -326 327 324 325 527 528 338 342 343 340 341 339 -344 345 346 347 348 630 628 632 629 633 631 505 506 504 665 -351 565 756 755 753 751 750 754 752 515 514 512 513 -362 365 363 364 367 368 366 74 758 759 757 -380 526 524 182 183 181 180 786 787 788 864 862 -383 381 382 525 730 731 728 729 523 522 301 305 645 644 640 -386 385 384 316 319 318 317 116 118 119 115 117 919 918 -404 400 402 592 595 590 591 594 593 837 840 839 838 828 827 -434 431 433 432 300 297 299 298 296 639 637 634 636 638 652 653 654 656 655 651 657 -447 445 379 681 680 378 376 104 102 101 485 480 483 482 484 481 718 719 716 -454 453 709 708 783 781 784 782 785 -457 458 459 455 456 452 451 791 793 790 789 792 -466 467 414 413 412 462 460 416 461 415 777 779 778 780 776 710 713 -509 507 510 511 508 826 824 825 3 5 4 2 1 842 520 521 519 -529 684 685 683 682 686 248 245 244 247 246 906 910 909 908 907 -570 569 568 833 831 835 834 836 832 550 549 548 844 846 848 847 845 -571 574 573 572 38 36 37 32 35 33 34 496 493 495 494 598 601 602 600 596 599 597 816 817 -580 286 288 287 292 290 291 559 556 557 558 560 635 -606 607 613 43 39 41 44 666 663 668 664 667 -612 608 171 169 170 168 167 371 372 373 374 375 68 67 577 579 578 576 575 814 815 -659 658 661 274 275 276 271 273 272 277 108 109 107 110 106 690 687 -675 674 678 677 676 547 545 546 856 855 854 859 -689 691 688 18 19 16 17 811 806 805 808 809 807 810 499 293 294 869 867 -699 698 700 620 619 617 616 618 775 771 772 774 770 -704 706 705 707 53 54 51 49 50 52 701 702 703 841 843 -711 712 155 156 405 406 409 408 407 900 894 897 898 895 899 896 -742 741 391 392 393 873 874 875 872 876 -764 765 762 763 766 767 714 717 715 858 857 804 801 803 800 802 -861 860 320 321 322 323 888 885 884 886 887 0 





OBJ=
5637.905
BEST_KNOWN=
0.000